NAME : amz1595.1627500_82500.tour
COMMENT : Cost = 1627500_82500
COMMENT : Found by LKH-AMZ [Keld Helsgaun] Sun May 11 14:56:20 2025
COMMENT : TW viol.: 0 #: 0
TYPE : TOUR
DIMENSION : 115
TOUR_SECTION
79
89
84
29
63
108
39
68
102
44
33
61
47
6
53
99
91
101
8
67
32
60
5
13
16
41
105
113
51
35
43
42
46
96
23
37
30
104
92
52
114
10
100
110
71
28
56
24
18
7
4
17
111
25
58
93
54
20
31
82
19
50
97
75
55
36
86
74
21
98
40
65
107
11
1
72
78
22
95
26
2
87
9
59
90
15
115
83
34
88
3
106
62
112
27
80
77
66
85
81
49
94
109
69
45
76
70
38
64
48
103
14
73
12
57
-1
EOF
